Version identifier: 20.1.0.0 | 2020-11-10 | 9bedb6d68
Tried aggregator 2 times.
MIP Presolve eliminated 1800 rows and 1066 columns.
MIP Presolve modified 3424 coefficients.
Aggregator did 186 substitutions.
Reduced MIP has 1420 rows, 1155 columns, and 4513 nonzeros.
Reduced MIP has 296 binaries, 859 generals, 0 SOSs, and 0 indicators.
Presolve time = 0.02 sec. (7.55 ticks)
Found incumbent of value 64.000000 after 0.03 sec. (12.84 ticks)
Probing fixed 40 vars, tightened 373 bounds.
Probing time = 0.00 sec. (1.58 ticks)
Tried aggregator 1 time.
Detecting symmetries...
MIP Presolve eliminated 600 rows and 40 columns.
MIP Presolve modified 62 coefficients.
Reduced MIP has 820 rows, 1115 columns, and 2673 nonzeros.
Reduced MIP has 429 binaries, 686 generals, 0 SOSs, and 0 indicators.
Presolve time = 0.01 sec. (3.20 ticks)
Probing time = 0.00 sec. (0.22 ticks)
Clique table members: 1.
MIP emphasis: balance optimality and feasibility.
MIP search method: dynamic search.
Parallel mode: deterministic, using up to 24 threads.
Root relaxation solution time = 0.01 sec. (2.76 ticks)

        Nodes                                         Cuts/
   Node  Left     Objective  IInf  Best Integer    Best Bound    ItCnt     Gap

*     0+    0                           64.0000        0.0000           100.00%
      0     0        0.0000    45       64.0000        0.0000      255  100.00%
      0     0        0.1429    54       64.0000     Cuts: 126      429   99.78%
*     0+    0                           13.0000        0.1429            98.90%
      0     0        1.0000    68       13.0000      Cuts: 67      546   92.31%
      0     0        1.2000   114       13.0000      Cuts: 37      616   90.77%
      0     0        1.2000   105       13.0000      Cuts: 47      654   90.77%
      0     0        1.2500   119       13.0000      Cuts: 46      700   90.38%
      0     0        1.2500   125       13.0000      Cuts: 33      757   90.38%
      0     0        1.2500    67       13.0000      Cuts: 23      792   90.38%
      0     0        1.2500    85       13.0000      Cuts: 41      863   90.38%
*     0+    0                           10.0000        1.2500            87.50%
*     0+    0                            9.0000        1.2500            86.11%
      0     0        cutoff              9.0000        9.0000      863    0.00%
Elapsed time = 0.27 sec. (122.96 ticks, tree = 0.01 MB, solutions = 4)

Implied bound cuts applied:  29
Flow cuts applied:  4
Mixed integer rounding cuts applied:  12
Zero-half cuts applied:  81
Gomory fractional cuts applied:  10

Root node processing (before b&c):
  Real time             =    0.27 sec. (123.09 ticks)
Parallel b&c, 24 threads:
  Real time             =    0.00 sec. (0.00 ticks)
  Sync time (average)   =    0.00 sec.
  Wait time (average)   =    0.00 sec.
                          ------------
Total (root+branch&cut) =    0.27 sec. (123.09 ticks)

Solution status = Optimal
Solution LB = 9
Solution UB = 9
Runtime = 0.273291 seconds
	Command being timed: "/home/min/git_repos/CS598MEBProject/CNT-ILP/build/cnt -s 2 ./output/k6_n40/simC_c1_k6_n40_u3_s3_del02.input-left.cnp"
	User time (seconds): 2.93
	System time (seconds): 0.08
	Percent of CPU this job got: 943%
	Elapsed (wall clock) time (h:mm:ss or m:ss): 0:00.32
	Average shared text size (kbytes): 0
	Average unshared data size (kbytes): 0
	Average stack size (kbytes): 0
	Average total size (kbytes): 0
	Maximum resident set size (kbytes): 90072
	Average resident set size (kbytes): 0
	Major (requiring I/O) page faults: 0
	Minor (reclaiming a frame) page faults: 19507
	Voluntary context switches: 5211
	Involuntary context switches: 341
	Swaps: 0
	File system inputs: 0
	File system outputs: 16
	Socket messages sent: 0
	Socket messages received: 0
	Signals delivered: 0
	Page size (bytes): 4096
	Exit status: 0
